1264
1500000
983926
983926
983926
983926
983926
983926
983926
983926
983926
983926
983926
983926
983926
983926
983926
977444
973630
973630
973630
973630
973630
973630
973630
973630
973630
973630
973630
973630
969215
969215
967741
967741
967741
967741
967741
967741
967741
967741
967741
945408
945408
945408
945408
945408
945408
945408
945408
945408
945408
945408
945408
945408
945408
945408
945408
945408
941937
941937
941937
941937
941937
941937
941937
941937
941937
941937
941937
941937
941937
941937
935116
935116
935116
924848
924848
924848
924848
924848
924848
923704
923704
923704
923704
923704
923704
923704
923704
923704
923704
923704
923704
919194
919194
919194
919194
919194
919194
919194
919194
919194
913508
913508
913508
913508
913508
913508
913508
913508
913508
913508
913508
913508
908528
908528
908528
908528
908528
908528
908528
908528
908528
908528
908528
908528
908528
908528
908528
908528
908528
908528
908528
908528
905635
905635
905635
905635
905635
905635
905635
905635
905635
905635
905635
905635
905635
905635
905635
905635
890853
890853
890853
890853
890853
890853
890853
890853
890853
890853
890853
890853
890853
890853
890853
890853
890853
890853
885513
885513
885513
885513
885513
885513
885513
885513
885513
885513
885513
885513
885513
883606
883606
883606
883606
883606
883606
883606
883606
883606
883606
883606
877970
877970
877970
863851
863851
863851
863851
863851
863851
863851
863851
863851
863851
863851
861762
861762
861762
861762
861762
861762
861762
861762
861762
861762
861762
861762
861762
861762
861762
861762
861631
861631
861631
861631
861631
861631
861631
854681
854681
854681
854681
854681
854681
854681
854681
854681
854681
854681
854681
854681
854681
854681
854681
851057
851057
851057
848471
848471
848471
848471
848471
848471
848471
848471
848471
848471
848471
848471
848471
848471
844935
844935
844935
844935
808275
808275
808275
804440
804440
804440
804440
804440
804440
804440
804440
804440
795198
795198
795198
795198
795198
784852
784852
784852
784852
784852
784852
784376
784376
784376
784376
784376
784376
784376
784376
784376
784376
784376
784376
784376
784326
784326
784326
784326
784326
784326
784326
784326
784326
784326
784326
784326
784326
784326
784326
784326
784326
781355
781355
781355
781355
781355
781355
781355
781355
781355
781355
781355
781355
781355
781355
780940
780940
780940
780940
780940
780940
780940
780940
780940
780940
780940
780940
780940
780940
780940
780940
780940
780940
779922
779922
768286
768286
768286
768286
768286
768286
768286
768286
768286
768286
768286
768286
768286
768286
768286
768286
768286
768286
768286
753176
753176
753176
753176
753176
753176
753176
753176
753176
753176
753176
753176
753176
753176
753176
752997
752997
752997
752997
752997
752997
752997
752997
752997
752997
752997
752997
752997
752997
749681
749681
749681
749681
749681
749681
749681
749681
749681
749681
749681
749681
749681
749681
749681
749681
749681
749681
749681
737415
737415
726826
724950
724950
724950
724950
724245
724245
724245
724245
724245
724245
724245
724245
724245
724245
724245
724245
724245
724245
724245
724245
724245
719380
719380
719380
719380
716605
716605
716605
716605
716605
700740
700740
699360
699360
699360
699360
699360
699360
699360
686133
686133
686133
686133
686133
686133
686133
686133
686133
686133
686133
686133
686133
686133
686133
684738
684738
684738
684738
684738
684738
684738
675384
675384
675384
675384
675384
675384
675384
675384
673506
673506
673506
673506
668993
668993
668993
668993
668993
668993
668993
668993
668993
668993
668559
668559
668559
668559
665838
665838
665838
665838
665838
665838
665550
665550
665550
665550
665550
665550
665550
665550
665550
665550
665550
665550
665550
665550
665550
665550
665550
665550
665550
653604
653604
653604
653604
653604
653604
653604
653604
653604
653604
653604
653604
653604
653604
653604
653604
653604
653604
653604
653604
653576
653576
653576
653576
653576
653576
653576
653576
653576
653576
653576
653576
653576
651951
651951
651951
651951
651951
651951
651951
651951
651951
651951
651951
651951
643524
643524
628323
628323
626341
614484
614484
614484
614484
614484
614484
614484
614484
614484
614484
614484
614484
614484
614484
614484
614484
614484
614484
599899
599899
599899
599899
599899
599899
599899
597430
597430
597430
597430
597430
597430
597430
597430
597430
597430
597430
597430
597430
597430
597430
597430
597430
589364
589364
589364
589364
589364
589364
589364
589364
589364
589364
589364
589364
589364
588889
588889
588889
588889
588889
588889
588889
588889
588889
588889
588889
588889
588889
588889
588889
581927
581927
581927
581927
581927
581927
581927
567880
567880
567880
549699
549699
549699
549699
549699
536441
536441
536441
536441
536441
536441
535534
535534
535534
535534
535534
535534
535534
535534
535534
535534
530190
530190
530190
530190
530190
530190
530190
530190
530190
515672
515672
515672
513039
513039
513039
513039
513039
513039
513039
513039
513039
511813
511813
511813
511813
506230
506230
506230
506230
506230
506230
506230
506230
506230
506209
506209
506209
506209
506209
506209
506209
506209
506209
506209
503892
503892
503892
503892
503892
503892
503892
503892
503892
503892
503892
501682
501682
501682
501682
501682
501682
501682
501682
501682
501682
500336
500336
500336
500336
500336
500336
500336
500336
500336
500336
500336
498114
498114
498114
498114
498114
498114
498114
498114
498114
498114
498114
498114
498114
498114
498114
498114
498114
498114
498114
497505
497505
497505
497505
497505
497505
497505
497505
494859
494859
494859
494859
494859
494859
494859
494859
494859
479022
479022
479022
479022
479022
479022
479022
479022
479022
479022
479022
479022
479022
475053
475053
475053
475053
475053
475053
475053
475053
475053
475053
475053
475053
475053
475053
468681
468681
468681
468681
468681
468681
468681
468681
468681
468681
468681
468681
468681
468681
468681
468681
468681
468681
468681
466037
466037
462019
452811
452811
452811
452811
452811
449716
449716
449716
449160
449160
449160
449160
449160
444991
444991
444991
444991
444991
444991
444991
444991
444991
444991
444991
444991
444991
444991
444991
444991
444991
444991
444991
444991
442017
442017
442017
442017
406507
406507
406507
406507
406507
406507
406507
400372
400372
400372
400372
400372
400372
400372
400372
400372
400372
400372
400372
399340
399340
399340
369617
369617
369617
369617
369617
369617
369617
369617
369617
369617
369617
369617
365901
363084
363084
363084
363084
363084
363084
363084
363084
363084
363084
363084
363084
363084
363084
363084
358865
352883
352883
352883
352883
352883
352883
352883
352883
352883
352883
352883
352883
352883
352883
352883
344337
344337
344337
344337
344337
344337
344337
344337
344337
344337
344337
344337
344337
344337
344337
344337
335140
335140
335140
335140
335140
335140
335140
335140
335140
335140
335140
335140
335140
335140
335140
335140
335140
335140
322569
322569
322569
322569
322569
322569
322569
322569
322569
322569
322569
322569
322569
322569
322569
322569
322569
322569
322569
317516
317516
317516
317516
317516
317516
317516
317516
317516
317516
317516
317516
317516
308480
308480
308480
305229
305229
305229
305229
305229
305229
305229
305229
305229
305229
305229
305229
305229
305229
305229
305229
300399
300399
300399
300399
300399
300399
300399
300399
300399
300399
300399
300399
300399
300399
300399
300399
300399
300399
300399
300399
296987
296987
296987
296987
296987
296987
296987
296987
296987
296987
296987
296987
296987
296987
296987
296987
296987
296987
296987
285892
285892
285892
285892
285892
285892
284494
284494
284494
284494
284494
284494
284494
284494
284494
284494
274613
274613
274613
274613
274613
274613
274613
274613
274613
274613
264153
264153
264153
254890
254890
254890
254890
254890
254890
254890
254890
254890
254890
252186
252186
252186
252186
252186
252186
252186
252186
252186
249184
249184
249184
249184
249184
249184
249184
249184
249184
249184
249184
249184
249184
249184
249184
249184
248658
248658
248658
248658
238626
238626
238626
238626
238626
238626
238626
238626
238626
232163
232163
232163
232163
232163
232163
232163
232163
232163
232163
232163
232163
232163
232163
232163
232163
232163
232163
232163
229280
229280
229280
229280
229280
229280
229280
229280
229280
229280
229280
229280
229280
226524
226524
226524
226524
226524
226524
226524
226524
226524
226524
226524
226524
226524
226524
226524
226524
226524
226524
225667
225667
225667
225667
225667
225667
225667
225667
225667
225667
225667
225667
225667
225667
225667
225667
225667
225667
225667
225667
215391
215391
208825
208825
208825
208825
208825
208825
208825
208825
208825
208825
208825
208825
208825
208825
208825
208825
208825
208825
208825
208825
205976
205976
205976
205976
205976
205976
204903
204903
204903
204903
204903
204903
204903
204903
204903
204903
204903
204903
204903
204903
204903
204903
204903
